21° run output:
{
    "Function": "kroB400.tsp",
    "Problem dimension": [
        99,
        188,
        77,
        360,
        323,
        224,
        227,
        386,
        339,
        57,
        247,
        59,
        93,
        262,
        234,
        50,
        111,
        175,
        3,
        82,
        291,
        398,
        187,
        310,
        45,
        94,
        350,
        301,
        308,
        319,
        31,
        237,
        16,
        43,
        140,
        233,
        369,
        131,
        342,
        10,
        353,
        394,
        295,
        213,
        181,
        163,
        334,
        197,
        75,
        96,
        283,
        337,
        132,
        52,
        38,
        246,
        14,
        361,
        347,
        157,
        149,
        368,
        36,
        119,
        177,
        365,
        231,
        85,
        324,
        341,
        214,
        225,
        230,
        306,
        305,
        145,
        255,
        383,
        223,
        209,
        245,
        19,
        71,
        176,
        114,
        98,
        144,
        344,
        121,
        189,
        74,
        348,
        268,
        335,
        167,
        351,
        249,
        185,
        395,
        109,
        229,
        260,
        322,
        267,
        155,
        28,
        390,
        183,
        25,
        204,
        210,
        6,
        165,
        29,
        375,
        228,
        88,
        106,
        216,
        76,
        232,
        53,
        370,
        326,
        97,
        33,
        219,
        95,
        161,
        235,
        366,
        102,
        316,
        309,
        172,
        80,
        178,
        263,
        129,
        266,
        212,
        205,
        203,
        265,
        51,
        86,
        127,
        158,
        257,
        24,
        314,
        58,
        200,
        23,
        336,
        277,
        211,
        325,
        133,
        107,
        136,
        152,
        46,
        290,
        123,
        250,
        282,
        294,
        296,
        41,
        207,
        15,
        1,
        159,
        44,
        349,
        243,
        389,
        226,
        91,
        270,
        321,
        135,
        168,
        220,
        128,
        352,
        110,
        117,
        359,
        222,
        215,
        274,
        190,
        304,
        154,
        147,
        264,
        105,
        332,
        64,
        258,
        392,
        37,
        345,
        70,
        160,
        252,
        238,
        113,
        333,
        377,
        331,
        81,
        391,
        164,
        338,
        388,
        18,
        355,
        259,
        363,
        40,
        284,
        254,
        17,
        218,
        27,
        2,
        11,
        379,
        194,
        302,
        356,
        30,
        63,
        328,
        221,
        87,
        293,
        68,
        340,
        78,
        126,
        21,
        173,
        65,
        217,
        55,
        279,
        35,
        47,
        329,
        256,
        141,
        269,
        72,
        7,
        174,
        393,
        362,
        156,
        193,
        374,
        148,
        195,
        42,
        248,
        184,
        372,
        300,
        84,
        346,
        198,
        208,
        83,
        171,
        236,
        286,
        103,
        79,
        122,
        138,
        399,
        179,
        166,
        20,
        327,
        312,
        281,
        381,
        343,
        371,
        380,
        170,
        120,
        288,
        299,
        358,
        66,
        240,
        67,
        378,
        69,
        39,
        313,
        297,
        397,
        273,
        242,
        280,
        367,
        382,
        202,
        275,
        26,
        34,
        12,
        385,
        192,
        384,
        115,
        134,
        199,
        49,
        373,
        396,
        62,
        292,
        143,
        54,
        244,
        298,
        180,
        271,
        56,
        315,
        376,
        318,
        112,
        100,
        354,
        303,
        330,
        151,
        125,
        206,
        146,
        272,
        289,
        317,
        104,
        162,
        13,
        153,
        287,
        9,
        251,
        142,
        5,
        139,
        130,
        285,
        186,
        61,
        32,
        108,
        241,
        276,
        124,
        201,
        261,
        278,
        48,
        137,
        253,
        92,
        357,
        118,
        101,
        196,
        116,
        364,
        191,
        22,
        4,
        169,
        387,
        8,
        320,
        89,
        60,
        90,
        239,
        307,
        73,
        182,
        150,
        311,
        0
    ],
    "Global Optimum": 0,
    "Algorithm": "Genetic algorithm",
    "Parameters": {
        "population": 30,
        "offspring": 30,
        "mutation probability": 0.0025,
        "crossover probability": 0.9
    },
    "Fitness": 441119,
    "Solution": [
        99,
        188,
        77,
        360,
        323,
        224,
        227,
        386,
        339,
        57,
        247,
        59,
        93,
        262,
        234,
        50,
        111,
        175,
        3,
        82,
        291,
        398,
        187,
        310,
        45,
        94,
        350,
        301,
        308,
        319,
        31,
        237,
        16,
        43,
        140,
        233,
        369,
        131,
        342,
        10,
        353,
        394,
        295,
        213,
        181,
        163,
        334,
        197,
        75,
        96,
        283,
        337,
        132,
        52,
        38,
        246,
        14,
        361,
        347,
        157,
        149,
        368,
        36,
        119,
        177,
        365,
        231,
        85,
        324,
        341,
        214,
        225,
        230,
        306,
        305,
        145,
        255,
        383,
        223,
        209,
        245,
        19,
        71,
        176,
        114,
        98,
        144,
        344,
        121,
        189,
        74,
        348,
        268,
        335,
        167,
        351,
        249,
        185,
        395,
        109,
        229,
        260,
        322,
        267,
        155,
        28,
        390,
        183,
        25,
        204,
        210,
        6,
        165,
        29,
        375,
        228,
        88,
        106,
        216,
        76,
        232,
        53,
        370,
        326,
        97,
        33,
        219,
        95,
        161,
        235,
        366,
        102,
        316,
        309,
        172,
        80,
        178,
        263,
        129,
        266,
        212,
        205,
        203,
        265,
        51,
        86,
        127,
        158,
        257,
        24,
        314,
        58,
        200,
        23,
        336,
        277,
        211,
        325,
        133,
        107,
        136,
        152,
        46,
        290,
        123,
        250,
        282,
        294,
        296,
        41,
        207,
        15,
        1,
        159,
        44,
        349,
        243,
        389,
        226,
        91,
        270,
        321,
        135,
        168,
        220,
        128,
        352,
        110,
        117,
        359,
        222,
        215,
        274,
        190,
        304,
        154,
        147,
        264,
        105,
        332,
        64,
        258,
        392,
        37,
        345,
        70,
        160,
        252,
        238,
        113,
        333,
        377,
        331,
        81,
        391,
        164,
        338,
        388,
        18,
        355,
        259,
        363,
        40,
        284,
        254,
        17,
        218,
        27,
        2,
        11,
        379,
        194,
        302,
        356,
        30,
        63,
        328,
        221,
        87,
        293,
        68,
        340,
        78,
        126,
        21,
        173,
        65,
        217,
        55,
        279,
        35,
        47,
        329,
        256,
        141,
        269,
        72,
        7,
        174,
        393,
        362,
        156,
        193,
        374,
        148,
        195,
        42,
        248,
        184,
        372,
        300,
        84,
        346,
        198,
        208,
        83,
        171,
        236,
        286,
        103,
        79,
        122,
        138,
        399,
        179,
        166,
        20,
        327,
        312,
        281,
        381,
        343,
        371,
        380,
        170,
        120,
        288,
        299,
        358,
        66,
        240,
        67,
        378,
        69,
        39,
        313,
        297,
        397,
        273,
        242,
        280,
        367,
        382,
        202,
        275,
        26,
        34,
        12,
        385,
        192,
        384,
        115,
        134,
        199,
        49,
        373,
        396,
        62,
        292,
        143,
        54,
        244,
        298,
        180,
        271,
        56,
        315,
        376,
        318,
        112,
        100,
        354,
        303,
        330,
        151,
        125,
        206,
        146,
        272,
        289,
        317,
        104,
        162,
        13,
        153,
        287,
        9,
        251,
        142,
        5,
        139,
        130,
        285,
        186,
        61,
        32,
        108,
        241,
        276,
        124,
        201,
        261,
        278,
        48,
        137,
        253,
        92,
        357,
        118,
        101,
        196,
        116,
        364,
        191,
        22,
        4,
        169,
        387,
        8,
        320,
        89,
        60,
        90,
        239,
        307,
        73,
        182,
        150,
        311,
        0
    ],
    "Nb of functions evaluations": 200010,
    "Computational time in seconds": 551.9187047481537,
    "Stopping criterion in evaluations": 200000
}